
  26    0


   0  11 2 3 4 5 6 7 10 22 23 24 25 
   2   8 21 20 16 15 14 13 11 9 
   6   3 15 14 8 
   4   3 19 18 13 
   2   3 15 14 12 
   8   3 16 12 11 
   4   2 17 11 
   8   1 13 
   2   1 12 
  10   1 11 
   2   1 26
   6   1 26
   2   1 26
   3   1 26
   6   1 26
   7   1 26
   6   1 26
   6   1 26
   5   1 26
   1   1 26
   7   1 26
   7   1 26
   7   1 26
   3   1 26
   1   1 26
   0   0 
